PROBLEM NAME: eil51_n8
KNAPSACK DATA TYPE: multiple strongly correlated
DIMENSION: 8
NUMBER OF ITEMS: 7
CAPACITY OF KNAPSACK: 992
MIN SPEED: 0.1
MAX SPEED: 1
RENTING RATIO: 3.51
EDGE_WEIGHT_TYPE: CEIL_2D
NODE_COORD_SECTION	(INDEX, X, Y):
1	52	64
2	57	58
3	16	57
4	27	68
5	58	48
6	10	17
7	39	10
8	48	28
ITEMS SECTION	(INDEX, PROFIT, WEIGHT, ASSIGNED NODE NUMBER):
1	1192	992	4
2	849	649	3
3	706	506	6
4	657	457	7
5	616	416	8
6	437	237	5
7	294	94	2
